5672788666632724300507,1,1,2,014,7,1,2,010,10,1,2,01,14,1,2,04,3,1,2,01,5,1,2,012,14,1,2,01,6,1,2,014,15,1,2,07,7,1,2,010,12,1,2,014,11,1,2,015,9,1,2,08,6,1,2,011,14,1,2,014,7,1,2,06,5,1,2,05,6,1,2,011,9,1,2,014,15,1,2,014,10,1,2,08,13,1,2,08,5,1,2,06,10,1,2,015,10,1,2,02,10,1,2,015,14,1,2,012,15,1,2,010,6,1,2,05,15,1,2,03,5,1,2,07,12,1,2,04,14,1,2,04,13,1,2,014,3,1,2,06,11,1,2,07,7,1,2,010,1,1,2,015,15,1,2,013,8,1,2,01,5,1,2,04,5,1,2,01,5,1,2,06,2,1,2,05,15,1,2,010,9,1,2,05,13,1,2,02,11,1,2,010,3,1,2,02,5,1,2,0